swarm_exploration/utils/lkh_mtsp_solver/resource/amtsp2_4.atsp
NAME : amtsp
TYPE : ATSP
DIMENSION : 6
EDGE_WEIGHT_TYPE : EXPLICIT
EDGE_WEIGHT_FORMAT : FULL_MATRIX
EDGE_WEIGHT_SECTION
100000 -100000 100000 100000 100000 100000 
100000 100000 -61 1131 1219 -17 
0 0 100000 -315 -234 -292 
0 0 -315 100000 -271 -199 
0 0 -234 -271 100000 -307 
0 0 -292 -199 -307 100000 
