swarm_exploration/utils/lkh_mtsp_solver/resource/amtsp2_4.tour
NAME : amtsp.-100954.tour
COMMENT : Length = -100954
COMMENT : Found by LKH [Keld Helsgaun] Fri Oct 13 14:43:53 2023
TYPE : TOUR
DIMENSION : 6
TOUR_SECTION
1
2
3
4
5
6
-1
EOF
